
Gurobi 9.1.1 (linux64) logging started Tue Oct 19 11:54:20 2021

Changed value of parameter LogFile to results/max2cut_numv160/max2cut_numv160_i160-033_peel_decompose_weighted_BQO_log.txt
   Prev:   Default: 
Gurobi Optimizer version 9.1.1 build v9.1.1rc0 (linux64)
Thread count: 20 physical cores, 40 logical processors, using up to 10 threads
Optimize a model with 150 rows, 300 columns and 300 nonzeros
Model fingerprint: 0x19cdf42a
Model has 920 quadratic objective terms
Variable types: 0 continuous, 300 integer (300 binary)
Coefficient statistics:
  Matrix range     [1e+00, 1e+00]
  Objective range  [8e+01, 8e+01]
  QObjective range [2e+02, 4e+02]
  Bounds range     [1e+00, 1e+00]
  RHS range        [1e+00, 1e+00]
Found heuristic solution: objective -0.0000000
Presolve removed 150 rows and 151 columns
Presolve time: 0.00s
Presolved: 298 rows, 447 columns, 894 nonzeros
Found heuristic solution: objective 699.0000000
Variable types: 0 continuous, 447 integer (447 binary)
Found heuristic solution: objective 21493.000000

Root relaxation: objective -3.409350e+04, 125 iterations, 0.00 seconds

    Nodes    |    Current Node    |     Objective Bounds      |     Work
 Expl Unexpl |  Obj  Depth IntInf | Incumbent    BestBd   Gap | It/Node Time

     0     0 34093.5000    0  144 21493.0000 34093.5000  58.6%     -    0s
H    0     0                    27598.000000 34093.5000  23.5%     -    0s
H    0     0                    27721.000000 34093.5000  23.0%     -    0s
H    0     0                    27814.000000 32784.5000  17.9%     -    0s
     0     0 32659.5000    0  162 27814.0000 32659.5000  17.4%     -    0s
H    0     0                    28013.000000 32317.5000  15.4%     -    0s
     0     0 32170.0000    0  174 28013.0000 32170.0000  14.8%     -    0s
     0     0 32125.3333    0  184 28013.0000 32125.3333  14.7%     -    0s
     0     0 31745.1000    0  197 28013.0000 31745.1000  13.3%     -    0s
     0     0 31745.1000    0  197 28013.0000 31745.1000  13.3%     -    0s
H    0     0                    28313.000000 31745.1000  12.1%     -    0s
     0     2 31745.1000    0  197 28313.0000 31745.1000  12.1%     -    0s
H   35    46                    28424.000000 31229.0000  9.87%  78.8    0s
H   89    96                    28619.000000 31100.5000  8.67%  65.0    0s
H   98   112                    29731.000000 31100.5000  4.61%  62.3    0s
*  119   118              12    30161.000000 31100.5000  3.11%  57.8    0s
*  270    66              11    30192.000000 30869.5385  2.24%  44.0    0s

Cutting planes:
  Gomory: 7
  MIR: 2
  Zero half: 69
  RLT: 1

Explored 422 nodes (17099 simplex iterations) in 0.29 seconds
Thread count was 10 (of 40 available processors)

Solution count 10: 30192 30161 29731 ... 27598

Optimal solution found (tolerance 0.00e+00)
Best objective 3.019200000000e+04, best bound 3.019200000000e+04, gap 0.0000%
